PROBLEM NAME: eil51_n6
KNAPSACK DATA TYPE: multiple strongly correlated
DIMENSION: 6
NUMBER OF ITEMS: 25
CAPACITY OF KNAPSACK: 1226
MIN SPEED: 0.1
MAX SPEED: 1
RENTING RATIO: 4.85
EDGE_WEIGHT_TYPE: CEIL_2D
NODE_COORD_SECTION	(INDEX, X, Y):
1	31	62
2	52	41
3	27	23
4	57	58
5	62	42
6	43	67
ITEMS SECTION	(INDEX, PROFIT, WEIGHT, ASSIGNED NODE NUMBER):
1	1194	994	6
2	1192	992	6
3	1093	893	6
4	1015	815	6
5	991	791	6
6	966	766	4
7	900	700	4
8	867	667	4
9	849	649	4
10	833	633	4
11	817	617	5
12	798	598	5
13	744	544	5
14	706	506	5
15	657	457	5
16	646	446	2
17	628	428	2
18	622	422	2
19	616	416	2
20	559	359	2
21	534	334	3
22	437	237	3
23	331	131	3
24	294	94	3
25	207	7	3
